3 
4  49 
5  02 26 42 57 
6  11 26 43 58 
7  13 28 43 58 
8  13 28 43 58 
9  13 28 45 
10  00 15 30 45 
11  00 15 30 45 
12  00 15 30 45 
13  00 15 30 45 
14  00 15 30 44 58 
15  13 28 43 58 
16  13 28 43 58 
17  13 28 43 58 
18  13 28 44 59 
19  14 29 44 59 
20  14 29 44 59 
21  14 44 
22  
23  
0 
